; benchmark generated from python API
(set-info :status unknown)
(declare-fun R_E1_V4 () Bool)
(declare-fun W_S1_V4 () Bool)
(declare-fun R_E1_V5 () Bool)
(declare-fun W_S1_V5 () Bool)
(declare-fun W_S2_V5 () Bool)
(declare-fun W_S2_V2 () Bool)
(declare-fun W_S2_V3 () Bool)
(declare-fun W_S2_V1 () Bool)
(declare-fun R_S2_V4 () Bool)
(declare-fun R_S2_V5 () Bool)
(declare-fun R_S2_V2 () Bool)
(declare-fun R_S2_V3 () Bool)
(declare-fun R_S2_V1 () Bool)
(declare-fun R_S1_V4 () Bool)
(declare-fun R_S1_V5 () Bool)
(declare-fun R_S1_V2 () Bool)
(declare-fun R_S1_V3 () Bool)
(declare-fun R_S1_V1 () Bool)
(declare-fun R_E1_V2 () Bool)
(declare-fun DISJ_W_S2_R_E1 () Bool)
(declare-fun DISJ_W_S2_R_S2 () Bool)
(declare-fun DISJ_W_S2_R_S1 () Bool)
(declare-fun DISJ_W_S1_W_S2 () Bool)
(declare-fun R_E1_V3 () Bool)
(declare-fun DISJ_W_S1_R_S2 () Bool)
(declare-fun DISJ_W_S1_R_S1 () Bool)
(declare-fun W_S2_V4 () Bool)
(declare-fun W_S1_V3 () Bool)
(declare-fun W_S1_V2 () Bool)
(declare-fun W_S1_V1 () Bool)
(declare-fun R_E1_V1 () Bool)
(declare-fun DISJ_W_S1_R_E1 () Bool)
(assert
 (let (($x2653 (not (and W_S1_V4 R_E1_V4))))
 (let (($x4738 (not (and W_S1_V5 R_E1_V5))))
 (let (($x3661 (forall ((V3_0 Int) )(forall ((V2_0 Int) )(forall ((V5_0 Int) )(forall ((V4_0 Int) )(forall ((MW_S1_V1 Bool) )(forall ((MW_S1_V3 Bool) )(forall ((MW_S1_V2 Bool) )(forall ((MW_S1_V5 Bool) )(forall ((MW_S1_V4 Bool) )(forall ((MW_S2_V1 Bool) )(forall ((MW_S2_V3 Bool) )(forall ((MW_S2_V2 Bool) )(forall ((MW_S2_V5 Bool) )(forall ((MW_S2_V4 Bool) )(forall ((S1_V1_!6442 Int) )(forall ((S1_V1_!6447 Int) )(forall ((S1_V1_!6464 Int) )(forall ((S1_V1_!6474 Int) )(forall ((S2_V5_!6456 Int) )(forall ((S2_V5_!6461 Int) )(forall ((S2_V5_!6472 Int) )(forall ((S2_V5_!6482 Int) )(forall ((S1_V3_!6443 Int) )(forall ((S1_V3_!6448 Int) )(forall ((S1_V3_!6465 Int) )(forall ((S1_V3_!6475 Int) )(forall ((S1_V2_!6444 Int) )(forall ((S1_V2_!6449 Int) )(forall ((S1_V2_!6466 Int) )(forall ((S1_V2_!6476 Int) )(forall ((E1_!6441 Int) )(forall ((E1_!6452 Int) )(forall ((E1_!6463 Int) )(forall ((S2_V4_!6457 Int) )(forall ((S2_V4_!6462 Int) )(forall ((S2_V4_!6473 Int) )(forall ((S2_V4_!6483 Int) )(forall ((S1_V5_!6445 Int) )(forall ((S1_V5_!6450 Int) )(forall ((S1_V5_!6467 Int) )(forall ((S1_V5_!6477 Int) )(forall ((S2_V1_!6453 Int) )(forall ((S2_V1_!6458 Int) )(forall ((S2_V1_!6469 Int) )(forall ((S2_V1_!6479 Int) )(forall ((S1_V4_!6446 Int) )(forall ((S1_V4_!6451 Int) )(forall ((S1_V4_!6468 Int) )(forall ((S1_V4_!6478 Int) )(forall ((S2_V2_!6455 Int) )(forall ((S2_V2_!6460 Int) )(forall ((S2_V2_!6471 Int) )(forall ((S2_V2_!6481 Int) )(forall ((S2_V3_!6454 Int) )(forall ((S2_V3_!6459 Int) )(forall ((S2_V3_!6470 Int) )(forall ((S2_V3_!6480 Int) )(let (($x92 (= (ite MW_S2_V4 S2_V4_!6462 (ite MW_S1_V4 S1_V4_!6451 V4_0)) (ite MW_S2_V4 S2_V4_!6483 (ite MW_S1_V4 S1_V4_!6478 (ite MW_S2_V4 S2_V4_!6473 (ite MW_S1_V4 S1_V4_!6468 V4_0)))))))
 (let (($x2392 (= (ite MW_S2_V5 S2_V5_!6461 (ite MW_S1_V5 S1_V5_!6450 V5_0)) (ite MW_S2_V5 S2_V5_!6482 (ite MW_S1_V5 S1_V5_!6477 (ite MW_S2_V5 S2_V5_!6472 (ite MW_S1_V5 S1_V5_!6467 V5_0)))))))
 (let ((?x5481 (ite MW_S1_V2 S1_V2_!6466 V2_0)))
 (let ((?x1783 (ite MW_S2_V2 S2_V2_!6471 ?x5481)))
 (let ((?x4784 (ite MW_S1_V2 S1_V2_!6476 ?x1783)))
 (let ((?x1286 (ite MW_S2_V2 S2_V2_!6481 ?x4784)))
 (let ((?x3093 (ite MW_S1_V2 S1_V2_!6449 V2_0)))
 (let ((?x3633 (ite MW_S2_V2 S2_V2_!6460 ?x3093)))
 (let (($x4918 (= (ite MW_S2_V3 S2_V3_!6459 (ite MW_S1_V3 S1_V3_!6448 V3_0)) (ite MW_S2_V3 S2_V3_!6480 (ite MW_S1_V3 S1_V3_!6475 (ite MW_S2_V3 S2_V3_!6470 (ite MW_S1_V3 S1_V3_!6465 V3_0)))))))
 (let ((?x802 (ite MW_S1_V1 S1_V1_!6464 E1_!6463)))
 (let ((?x5186 (ite MW_S2_V1 S2_V1_!6469 ?x802)))
 (let ((?x5128 (+ 1 ?x5186)))
 (let ((?x4629 (ite MW_S1_V1 S1_V1_!6474 ?x5128)))
 (let ((?x3266 (ite MW_S2_V1 S2_V1_!6479 ?x4629)))
 (let ((?x5927 (ite MW_S2_V1 S2_V1_!6453 E1_!6452)))
 (let ((?x1925 (+ 1 ?x5927)))
 (let ((?x4022 (ite MW_S2_V1 S2_V1_!6458 ?x1925)))
 (let (($x4424 (>= (ite MW_S1_V1 S1_V1_!6447 (+ 1 (ite MW_S1_V1 S1_V1_!6442 E1_!6441))) (+ (- 1) ?x3093))))
 (let (($x1954 (and (not (<= V2_0 E1_!6441)) (not (<= (ite MW_S1_V2 S1_V2_!6444 V2_0) (+ 1 (ite MW_S1_V1 S1_V1_!6442 E1_!6441)))) $x4424 (not (<= ?x3093 E1_!6452)) (not (<= (ite MW_S2_V2 S2_V2_!6455 ?x3093) ?x1925)) (>= ?x4022 (+ (- 1) ?x3633)) (not (<= V2_0 E1_!6463)) (not (<= ?x1783 ?x5128)) (>= ?x3266 (+ (- 1) ?x1286)))))
 (let (($x530 (= S2_V3_!6470 S2_V3_!6480)))
 (let ((?x91 (ite MW_S1_V4 S1_V4_!6468 V4_0)))
 (let ((?x6302 (ite MW_S2_V4 S2_V4_!6473 ?x91)))
 (let ((?x3509 (ite MW_S1_V4 S1_V4_!6478 ?x6302)))
 (let (($x3411 (not R_S2_V4)))
 (let ((?x5122 (ite MW_S1_V5 S1_V5_!6467 V5_0)))
 (let ((?x2494 (ite MW_S2_V5 S2_V5_!6472 ?x5122)))
 (let ((?x230 (ite MW_S1_V5 S1_V5_!6477 ?x2494)))
 (let (($x2427 (not R_S2_V5)))
 (let ((?x2158 (ite MW_S1_V3 S1_V3_!6465 V3_0)))
 (let ((?x2282 (ite MW_S2_V3 S2_V3_!6470 ?x2158)))
 (let ((?x2518 (ite MW_S1_V3 S1_V3_!6475 ?x2282)))
 (let (($x1768 (not R_S2_V3)))
 (let (($x3506 (and (or (not R_S2_V1) (= ?x802 ?x4629)) (or $x1768 (= ?x2158 ?x2518)) (or (not R_S2_V2) (= ?x5481 ?x4784)) (or $x2427 (= ?x5122 ?x230)) (or $x3411 (= ?x91 ?x3509)))))
 (let (($x3061 (not $x3506)))
 (let (($x2556 (= S2_V3_!6470 S2_V3_!6454)))
 (let (($x217 (and (or (not R_S2_V1) (= ?x802 E1_!6452)) (or $x1768 (= ?x2158 (ite MW_S1_V3 S1_V3_!6448 V3_0))) (or (not R_S2_V2) (= ?x5481 ?x3093)) (or $x2427 (= ?x5122 (ite MW_S1_V5 S1_V5_!6450 V5_0))) (or $x3411 (= ?x91 (ite MW_S1_V4 S1_V4_!6451 V4_0))))))
 (let (($x4339 (not $x217)))
 (let (($x4486 (= S2_V3_!6459 S2_V3_!6480)))
 (let (($x3290 (and (or (not R_S2_V1) (= ?x5927 (+ (- 1) ?x4629))) (or $x1768 (= (ite MW_S2_V3 S2_V3_!6454 (ite MW_S1_V3 S1_V3_!6448 V3_0)) ?x2518)) (or (not R_S2_V2) (= (ite MW_S2_V2 S2_V2_!6455 ?x3093) ?x4784)) (or $x2427 (= (ite MW_S2_V5 S2_V5_!6456 (ite MW_S1_V5 S1_V5_!6450 V5_0)) ?x230)) (or $x3411 (= (ite MW_S2_V4 S2_V4_!6457 (ite MW_S1_V4 S1_V4_!6451 V4_0)) ?x3509)))))
 (let (($x941 (not $x3290)))
 (let (($x2485 (= S2_V3_!6459 S2_V3_!6470)))
 (let (($x1016 (and (or (not R_S2_V1) (= ?x5927 (+ (- 1) ?x802))) (or $x1768 (= (ite MW_S2_V3 S2_V3_!6454 (ite MW_S1_V3 S1_V3_!6448 V3_0)) ?x2158)) (or (not R_S2_V2) (= (ite MW_S2_V2 S2_V2_!6455 ?x3093) ?x5481)) (or $x2427 (= (ite MW_S2_V5 S2_V5_!6456 (ite MW_S1_V5 S1_V5_!6450 V5_0)) ?x5122)) (or $x3411 (= (ite MW_S2_V4 S2_V4_!6457 (ite MW_S1_V4 S1_V4_!6451 V4_0)) ?x91)))))
 (let (($x4677 (not $x1016)))
 (let (($x1949 (= S2_V3_!6459 S2_V3_!6454)))
 (let (($x4502 (or $x3411 (= (ite MW_S2_V4 S2_V4_!6457 (ite MW_S1_V4 S1_V4_!6451 V4_0)) (ite MW_S1_V4 S1_V4_!6451 V4_0)))))
 (let (($x2153 (or $x2427 (= (ite MW_S2_V5 S2_V5_!6456 (ite MW_S1_V5 S1_V5_!6450 V5_0)) (ite MW_S1_V5 S1_V5_!6450 V5_0)))))
 (let (($x172 (or $x1768 (= (ite MW_S2_V3 S2_V3_!6454 (ite MW_S1_V3 S1_V3_!6448 V3_0)) (ite MW_S1_V3 S1_V3_!6448 V3_0)))))
 (let (($x5777 (and (or (not R_S2_V1) (= ?x5927 (+ (- 1) E1_!6452))) $x172 (or (not R_S2_V2) (= (ite MW_S2_V2 S2_V2_!6455 ?x3093) ?x3093)) $x2153 $x4502)))
 (let (($x3919 (not $x5777)))
 (let (($x5505 (= S2_V3_!6454 S2_V3_!6480)))
 (let (($x3516 (and (or (not R_S2_V1) (= E1_!6452 ?x4629)) (or $x1768 (= (ite MW_S1_V3 S1_V3_!6448 V3_0) ?x2518)) (or (not R_S2_V2) (= ?x3093 ?x4784)) (or $x2427 (= (ite MW_S1_V5 S1_V5_!6450 V5_0) ?x230)) (or $x3411 (= (ite MW_S1_V4 S1_V4_!6451 V4_0) ?x3509)))))
 (let (($x595 (not $x3516)))
 (let (($x2590 (= S2_V2_!6481 S2_V2_!6460)))
 (let (($x1425 (and (or (not R_S2_V1) (= ?x4629 ?x1925)) (or $x1768 (= ?x2518 (ite MW_S2_V3 S2_V3_!6454 (ite MW_S1_V3 S1_V3_!6448 V3_0)))) (or (not R_S2_V2) (= ?x4784 (ite MW_S2_V2 S2_V2_!6455 ?x3093))) (or $x2427 (= ?x230 (ite MW_S2_V5 S2_V5_!6456 (ite MW_S1_V5 S1_V5_!6450 V5_0)))) (or $x3411 (= ?x3509 (ite MW_S2_V4 S2_V4_!6457 (ite MW_S1_V4 S1_V4_!6451 V4_0)))))))
 (let (($x1169 (= S2_V2_!6481 S2_V2_!6455)))
 (let (($x3562 (and (or (not R_S2_V1) (= ?x4629 E1_!6452)) (or $x1768 (= ?x2518 (ite MW_S1_V3 S1_V3_!6448 V3_0))) (or (not R_S2_V2) (= ?x4784 ?x3093)) (or $x2427 (= ?x230 (ite MW_S1_V5 S1_V5_!6450 V5_0))) (or $x3411 (= ?x3509 (ite MW_S1_V4 S1_V4_!6451 V4_0))))))
 (let (($x338 (not $x3562)))
 (let (($x12 (= S2_V2_!6471 S2_V2_!6460)))
 (let (($x2958 (and (or (not R_S2_V1) (= ?x802 ?x1925)) (or $x1768 (= ?x2158 (ite MW_S2_V3 S2_V3_!6454 (ite MW_S1_V3 S1_V3_!6448 V3_0)))) (or (not R_S2_V2) (= ?x5481 (ite MW_S2_V2 S2_V2_!6455 ?x3093))) (or $x2427 (= ?x5122 (ite MW_S2_V5 S2_V5_!6456 (ite MW_S1_V5 S1_V5_!6450 V5_0)))) (or $x3411 (= ?x91 (ite MW_S2_V4 S2_V4_!6457 (ite MW_S1_V4 S1_V4_!6451 V4_0)))))))
 (let (($x5971 (and (or (not R_S1_V1) (= ?x5186 (ite MW_S1_V1 S1_V1_!6442 E1_!6441))) (or (not R_S1_V3) (= ?x2282 (ite MW_S1_V3 S1_V3_!6443 V3_0))) (or (not R_S1_V2) (= ?x1783 (ite MW_S1_V2 S1_V2_!6444 V2_0))) (or (not R_S1_V5) (= ?x2494 (ite MW_S1_V5 S1_V5_!6445 V5_0))) (or (not R_S1_V4) (= ?x6302 (ite MW_S1_V4 S1_V4_!6446 V4_0))))))
 (let (($x757 (not $x5971)))
 (let (($x3109 (not R_S1_V4)))
 (let (($x2426 (or $x3109 (= V4_0 ?x6302))))
 (let (($x1626 (not R_S1_V5)))
 (let (($x2266 (or $x1626 (= V5_0 ?x2494))))
 (let (($x4263 (not R_S1_V2)))
 (let (($x3739 (or $x4263 (= V2_0 ?x1783))))
 (let (($x3742 (not R_S1_V3)))
 (let (($x4823 (or $x3742 (= V3_0 ?x2282))))
 (let (($x6056 (not (and (or (not R_S1_V1) (= E1_!6463 ?x5128)) $x4823 $x3739 $x2266 $x2426))))
 (let (($x2984 (or $x3109 (= V4_0 (ite MW_S1_V4 S1_V4_!6446 V4_0)))))
 (let (($x447 (or $x1626 (= V5_0 (ite MW_S1_V5 S1_V5_!6445 V5_0)))))
 (let (($x3271 (or $x4263 (= V2_0 (ite MW_S1_V2 S1_V2_!6444 V2_0)))))
 (let (($x5003 (or $x3742 (= V3_0 (ite MW_S1_V3 S1_V3_!6443 V3_0)))))
 (let (($x3688 (and (or (not R_S1_V1) (= E1_!6463 (+ 1 (ite MW_S1_V1 S1_V1_!6442 E1_!6441)))) $x5003 $x3271 $x447 $x2984)))
 (let (($x4156 (not $x3688)))
 (let (($x1562 (not (and (or (not R_S1_V1) (= E1_!6441 ?x5128)) $x4823 $x3739 $x2266 $x2426))))
 (let (($x2964 (and (or (not R_S1_V1) (= E1_!6441 (+ 1 (ite MW_S1_V1 S1_V1_!6442 E1_!6441)))) $x5003 $x3271 $x447 $x2984)))
 (let (($x6018 (not $x2964)))
 (let (($x5233 (or $x3109 (= ?x6302 V4_0))))
 (let (($x438 (or $x1626 (= ?x2494 V5_0))))
 (let (($x612 (or $x4263 (= ?x1783 V2_0))))
 (let (($x4032 (or $x3742 (= ?x2282 V3_0))))
 (let (($x2362 (and (or (not R_S1_V1) (= ?x5186 (+ (- 1) E1_!6463))) $x4032 $x612 $x438 $x5233)))
 (let (($x2438 (not $x2362)))
 (let (($x3819 (and (or (not R_S1_V1) (= ?x5186 (+ (- 1) E1_!6441))) $x4032 $x612 $x438 $x5233)))
 (let (($x2076 (not $x3819)))
 (let (($x4281 (= S2_V4_!6483 S2_V4_!6473)))
 (let (($x3406 (and (or (not R_S2_V1) (= ?x4629 ?x802)) (or $x1768 (= ?x2518 ?x2158)) (or (not R_S2_V2) (= ?x4784 ?x5481)) (or $x2427 (= ?x230 ?x5122)) (or $x3411 (= ?x3509 ?x91)))))
 (let (($x3569 (= E1_!6452 E1_!6463)))
 (let (($x2904 (and (or (not R_E1_V2) (= ?x3093 V2_0)) (or (not R_E1_V5) (= (ite MW_S1_V5 S1_V5_!6450 V5_0) V5_0)) (or (not R_E1_V4) (= (ite MW_S1_V4 S1_V4_!6451 V4_0) V4_0)))))
 (let (($x5702 (= E1_!6441 E1_!6463)))
 (let (($x70 (and (or (not R_E1_V2) (= V2_0 ?x3093)) (or (not R_E1_V5) (= V5_0 (ite MW_S1_V5 S1_V5_!6450 V5_0))) (or (not R_E1_V4) (= V4_0 (ite MW_S1_V4 S1_V4_!6451 V4_0))))))
 (let (($x1318 (= S1_V2_!6449 S1_V2_!6476)))
 (let (($x2565 (and (or (not R_S1_V1) (= (ite MW_S1_V1 S1_V1_!6442 E1_!6441) ?x5186)) (or $x3742 (= (ite MW_S1_V3 S1_V3_!6443 V3_0) ?x2282)) (or $x4263 (= (ite MW_S1_V2 S1_V2_!6444 V2_0) ?x1783)) (or $x1626 (= (ite MW_S1_V5 S1_V5_!6445 V5_0) ?x2494)) (or $x3109 (= (ite MW_S1_V4 S1_V4_!6446 V4_0) ?x6302)))))
 (let (($x512 (not $x2565)))
 (let (($x988 (or $x3109 (= (ite MW_S1_V4 S1_V4_!6446 V4_0) V4_0))))
 (let (($x1031 (or $x1626 (= (ite MW_S1_V5 S1_V5_!6445 V5_0) V5_0))))
 (let (($x3586 (or $x4263 (= (ite MW_S1_V2 S1_V2_!6444 V2_0) V2_0))))
 (let (($x557 (or $x3742 (= (ite MW_S1_V3 S1_V3_!6443 V3_0) V3_0))))
 (let (($x860 (and (or (not R_S1_V1) (= (ite MW_S1_V1 S1_V1_!6442 E1_!6441) (+ (- 1) E1_!6463))) $x557 $x3586 $x1031 $x988)))
 (let (($x2447 (not $x860)))
 (let (($x1059 (and (or (not R_S1_V1) (= (ite MW_S1_V1 S1_V1_!6442 E1_!6441) (+ (- 1) E1_!6441))) $x557 $x3586 $x1031 $x988)))
 (let (($x1346 (not $x1059)))
 (let (($x3239 (and (or (not R_S2_V1) (= E1_!6452 ?x802)) (or $x1768 (= (ite MW_S1_V3 S1_V3_!6448 V3_0) ?x2158)) (or (not R_S2_V2) (= ?x3093 ?x5481)) (or $x2427 (= (ite MW_S1_V5 S1_V5_!6450 V5_0) ?x5122)) (or $x3411 (= (ite MW_S1_V4 S1_V4_!6451 V4_0) ?x91)))))
 (let (($x2271 (and (or (not (or (not R_S1_V1) $x5702)) (= S1_V1_!6442 S1_V1_!6464)) (or $x1346 (= S1_V1_!6447 S1_V1_!6442)) (or $x2447 (= S1_V1_!6447 S1_V1_!6464)) (or $x2076 (= S1_V1_!6474 S1_V1_!6442)) (or $x757 (= S1_V1_!6474 S1_V1_!6447)) (or $x2438 (= S1_V1_!6474 S1_V1_!6464)) (or (not $x3239) (= S2_V5_!6456 S2_V5_!6472)) (or $x595 (= S2_V5_!6456 S2_V5_!6482)) (or $x3919 (= S2_V5_!6461 S2_V5_!6456)) (or $x4677 (= S2_V5_!6461 S2_V5_!6472)) (or $x941 (= S2_V5_!6461 S2_V5_!6482)) (or $x3061 (= S2_V5_!6472 S2_V5_!6482)) (or (not (or (not R_S1_V1) $x5702)) (= S1_V3_!6443 S1_V3_!6465)) (or $x1562 (= S1_V3_!6443 S1_V3_!6475)) (or $x1346 (= S1_V3_!6448 S1_V3_!6443)) (or $x2447 (= S1_V3_!6448 S1_V3_!6465)) (or $x512 (= S1_V3_!6448 S1_V3_!6475)) (or $x6056 (= S1_V3_!6465 S1_V3_!6475)) (or (not (or (not R_S1_V1) $x5702)) (= S1_V2_!6444 S1_V2_!6466)) (or $x1346 (= S1_V2_!6449 S1_V2_!6444)) (or $x2447 (= S1_V2_!6449 S1_V2_!6466)) (or $x512 $x1318) (or $x2076 (= S1_V2_!6476 S1_V2_!6444)) (or $x2438 (= S1_V2_!6476 S1_V2_!6466)) (or (not $x70) (= E1_!6441 E1_!6452)) $x5702 (or (not $x2904) $x3569) (or $x3919 (= S2_V4_!6462 S2_V4_!6457)) (or $x4677 (= S2_V4_!6462 S2_V4_!6473)) (or $x941 (= S2_V4_!6462 S2_V4_!6483)) (or $x4339 (= S2_V4_!6473 S2_V4_!6457)) (or $x338 (= S2_V4_!6483 S2_V4_!6457)) (or (not $x3406) $x4281) (or $x6018 (= S1_V5_!6445 S1_V5_!6450)) (or (not (or (not R_S1_V1) (= E1_!6463 E1_!6441))) (= S1_V5_!6467 S1_V5_!6445)) (or $x4156 (= S1_V5_!6467 S1_V5_!6450)) (or $x2076 (= S1_V5_!6477 S1_V5_!6445)) (or $x757 (= S1_V5_!6477 S1_V5_!6450)) (or $x2438 (= S1_V5_!6477 S1_V5_!6467)) (or $x3919 (= S2_V1_!6458 S2_V1_!6453)) (or $x4677 (= S2_V1_!6458 S2_V1_!6469)) (or $x941 (= S2_V1_!6458 S2_V1_!6479)) (or $x4339 (= S2_V1_!6469 S2_V1_!6453)) (or $x3061 (= S2_V1_!6469 S2_V1_!6479)) (or $x338 (= S2_V1_!6479 S2_V1_!6453)) (or $x6018 (= S1_V4_!6446 S1_V4_!6451)) (or $x1562 (= S1_V4_!6446 S1_V4_!6478)) (or (not (or (not R_S1_V1) (= E1_!6463 E1_!6441))) (= S1_V4_!6468 S1_V4_!6446)) (or $x4156 (= S1_V4_!6468 S1_V4_!6451)) (or $x6056 (= S1_V4_!6468 S1_V4_!6478)) (or $x757 (= S1_V4_!6478 S1_V4_!6451)) (or $x3919 (= S2_V2_!6460 S2_V2_!6455)) (or $x4339 (= S2_V2_!6471 S2_V2_!6455)) (or (not $x2958) $x12) (or $x3061 (= S2_V2_!6471 S2_V2_!6481)) (or $x338 $x1169) (or (not $x1425) $x2590) (or $x595 $x5505) (or $x3919 $x1949) (or $x4677 $x2485) (or $x941 $x4486) (or $x4339 $x2556) (or $x3061 $x530) (not MW_S1_V1) (not MW_S1_V2) (or (not MW_S1_V5) W_S1_V5) (or (not MW_S1_V4) W_S1_V4) (or (not MW_S2_V1) W_S2_V1) (or (not MW_S2_V3) W_S2_V3) (or (not MW_S2_V2) W_S2_V2) (or (not MW_S2_V5) W_S2_V5))))
 (or (not $x2271) (not $x1954) (and (= ?x4022 ?x3266) $x4918 (= ?x3633 ?x1286) $x2392 $x92)))))))))))))))))))))))))))))))))))))))))))))))))))))))))))))))))))))))))))))))))))))))))))))))))))))))))))))
 )
 )
 )
 )
 )
 )
 )
 )
 )
 )
 )
 )
 )
 )
 )
 )
 )
 )
 )
 )
 )
 )
 )
 )
 )
 )
 )
 )
 )
 )
 )
 )
 )
 )
 )
 )
 )
 )
 )
 )
 )
 )
 )
 )
 )
 )
 )
 )
 )
 )
 )
 )
 )
 )
 )
 )
 ))
 (let (($x720 (not (or (and W_S2_V2 R_E1_V2) (and W_S2_V5 R_E1_V5) R_E1_V4))))
 (let (($x2836 (= DISJ_W_S2_R_E1 $x720)))
 (let (($x5938 (and W_S2_V5 R_S2_V5)))
 (let (($x498 (and W_S2_V2 R_S2_V2)))
 (let (($x5427 (and W_S2_V3 R_S2_V3)))
 (let (($x5961 (and W_S2_V1 R_S2_V1)))
 (let (($x3110 (= DISJ_W_S2_R_S2 (not (or $x5961 $x5427 $x498 $x5938 R_S2_V4)))))
 (let (($x5870 (and W_S2_V5 R_S1_V5)))
 (let (($x2102 (and W_S2_V2 R_S1_V2)))
 (let (($x2875 (and W_S2_V3 R_S1_V3)))
 (let (($x4414 (and W_S2_V1 R_S1_V1)))
 (let (($x909 (= DISJ_W_S2_R_S1 (not (or $x4414 $x2875 $x2102 $x5870 R_S1_V4)))))
 (let (($x2852 (= DISJ_W_S1_W_S2 (not (or W_S2_V3 (and W_S1_V5 W_S2_V5) W_S1_V4)))))
 (let (($x4838 (not R_E1_V3)))
 (let (($x5614 (not (or R_S2_V3 (and W_S1_V5 R_S2_V5) (and W_S1_V4 R_S2_V4)))))
 (let (($x4054 (= DISJ_W_S1_R_S2 $x5614)))
 (let (($x1493 (not (or R_S1_V3 (and W_S1_V5 R_S1_V5) (and W_S1_V4 R_S1_V4)))))
 (let (($x3930 (= DISJ_W_S1_R_S1 $x1493)))
 (let (($x5237 (not W_S2_V3)))
 (let (($x2895 (not W_S2_V2)))
 (let (($x3411 (not R_S2_V4)))
 (let (($x2466 (not R_S2_V1)))
 (let (($x5901 (and $x2466 $x3411 $x2895 $x5237 DISJ_W_S2_R_S1)))
 (let (($x2427 (not R_S2_V5)))
 (let (($x2283 (and $x2427 $x3411 $x5237 DISJ_W_S2_R_S1)))
 (let (($x4683 (and $x3411 (not W_S1_V5) $x5237 DISJ_W_S2_R_S1)))
 (let (($x812 (and $x2466 $x2427 $x2895 $x5237 DISJ_W_S2_R_S1)))
 (let (($x2541 (not W_S1_V4)))
 (let (($x78 (and $x2427 $x2541 $x5237 DISJ_W_S2_R_S1)))
 (let (($x991 (not W_S2_V5)))
 (let (($x5847 (and $x2466 $x2895 $x991 $x5237 DISJ_W_S2_R_S1)))
 (let (($x3459 (and DISJ_W_S1_W_S2 DISJ_W_S2_R_S1)))
 (let (($x1768 (not R_S2_V3)))
 (let (($x3959 (and $x2466 $x1768 $x2427 $x2895 DISJ_W_S2_R_S1)))
 (let (($x3032 (and $x2466 $x1768 $x3411 $x2895 DISJ_W_S2_R_S1)))
 (let (($x4358 (and $x2466 $x3411 $x2895 $x991 DISJ_W_S2_R_S1)))
 (let (($x740 (and $x2466 $x2427 $x3411 $x2895 DISJ_W_S2_R_S1)))
 (let (($x1633 (and $x2466 $x1768 $x2895 $x991 DISJ_W_S2_R_S1)))
 (let (($x952 (and (not W_S2_V1) $x2895)))
 (let (($x1868 (and $x1768 $x3411 $x991 DISJ_W_S2_R_S1)))
 (let (($x1883 (and $x3411 $x991 $x5237 DISJ_W_S2_R_S1)))
 (let (($x2085 (and $x1768 $x2541 $x991 DISJ_W_S2_R_S1)))
 (let (($x4087 (and DISJ_W_S1_R_S2 DISJ_W_S2_R_S1)))
 (let (($x1595 (and $x2895 DISJ_W_S2_R_S2)))
 (let (($x432 (and DISJ_W_S2_R_S1 DISJ_W_S2_R_S2)))
 (let (($x5780 (or $x432 $x1595 $x4087 $x2085 $x1883 $x1868 $x952 $x1633 $x740 $x4358 $x3032 $x3959 $x3459 $x5847 $x78 $x812 $x4683 $x2283 $x5901)))
 (let (($x3651 (not R_S1_V1)))
 (let (($x2500 (and $x3651 DISJ_W_S1_R_S1)))
 (let (($x3274 (and $x2895 DISJ_W_S2_R_S1 DISJ_W_S1_R_S1)))
 (let (($x1057 (or $x3274 $x952 $x2500)))
 (let (($x2563 (not W_S1_V2)))
 (let (($x1438 (not W_S1_V1)))
 (let (($x2185 (not R_E1_V1)))
 (and DISJ_W_S1_R_E1 $x2185 $x1438 $x2563 $x1057 $x5780 W_S1_V3 W_S2_V4 $x3930 $x4054 $x4838 $x2852 $x909 $x3110 $x2836 $x3661 $x4738 $x2653))))))))))))))))))))))))))))))))))))))))))))))))))))))))))
(check-sat)
